NAME: CVRP_BENCHMARK
TYPE: CVRP
COMMENT: none
DIMENSION: 200
NUM_DAYS: 5
CAPACITY: 200
DISTANCE: 200
EDGE_WEIGHT_TYPE: FUNCTION
EDGE_WEIGHT_FORMAT: EUC_2D
NODE_COORD_TYPE: TWOD_COORDS
NODE_COORD_SECTION
1	-13.000 -13.000
2	1.000 -9.000
3	-14.000 10.000
4	10.000 0.000
5	20.000 -15.000
6	-2.000 -1.000
7	15.000 15.000
8	20.000 10.000
9	-9.000 24.000
10	5.000 31.000
11	20.000 30.000
12	0.000 16.000
13	27.000 0.000
14	27.000 22.000
15	27.000 -11.000
16	-14.000 1.000
17	-2.000 9.000
18	-26.000 21.000
19	27.000 13.000
20	31.000 -21.000
21	9.000 -22.000
22	-9.000 -22.000
23	-24.000 -7.000
24	-28.000 8.000
25	-18.000 29.000
26	6.000 11.000
27	20.000 -1.000
28	0.000 -19.000
29	17.000 -9.000
30	8.000 -9.000
31	-4.000 41.000
32	-13.000 18.000
33	-9.000 -6.000
34	15.000 5.000
35	20.000 15.000
36	19.000 -25.000
37	25.000 -20.000
38	12.000 31.000
39	-5.000 25.000
40	-5.000 15.000
41	-23.000 -18.000
42	-20.000 -21.000
43	-19.000 -16.000
44	-14.000 13.000
45	15.000 -5.000
46	16.000 7.000
47	15.000 -20.000
48	13.000 -14.000
49	-23.000 3.000
50	2.000 17.000
51	14.000 14.000
52	17.000 29.000
53	-15.000 -9.000
54	5.000 -5.000
55	-14.000 12.000
56	-18.000 28.000
57	-4.000 27.000
58	17.000 -2.000
59	16.000 -14.000
60	7.000 6.000
61	-4.000 -3.000
62	-30.000 -10.000
63	-23.000 7.000
64	1.000 -19.000
65	17.000 6.000
66	-8.000 -12.000
67	-18.000 -2.000
68	-22.000 -22.000
69	22.000 23.000
70	27.000 7.000
71	7.000 22.000
72	-19.000 22.000
73	-27.000 17.000
74	-28.000 3.000
75	-8.000 33.000
76	-5.000 13.000
77	8.000 32.000
78	23.000 13.000
79	23.000 -8.000
80	2.000 34.000
81	3.000 11.000
82	11.000 -25.000
83	26.000 -2.000
84	27.000 28.000
85	28.000 34.000
86	-3.000 -13.000
87	10.000 0.000
88	24.000 -20.000
89	-30.000 -29.000
90	-25.000 -18.000
91	-14.000 -25.000
92	-30.000 29.000
93	-5.000 -20.000
94	4.000 -25.000
95	-3.000 4.000
96	-10.000 -3.000
97	-10.000 20.000
98	13.000 -7.000
99	21.000 2.000
100	6.000 14.000
101	0.000 -18.000
102	20.000 10.000
103	20.000 -15.000
104	-20.000 -5.000
105	-10.000 -5.000
106	-15.000 15.000
107	-25.000 8.000
108	20.000 25.000
109	-5.000 25.000
110	-15.000 30.000
111	15.000 0.000
112	-5.000 -10.000
113	-20.000 -25.000
114	-5.000 -30.000
115	-25.000 -15.000
116	-30.000 -5.000
117	-15.000 5.000
118	-20.000 25.000
119	10.000 30.000
120	10.000 -15.000
121	10.000 -25.000
122	20.000 -30.000
123	30.000 0.000
124	30.000 -15.000
125	10.000 -5.000
126	0.000 5.000
127	6.000 2.000
128	29.000 7.000
129	5.000 25.000
130	-4.000 17.000
131	0.000 34.000
132	18.000 17.000
133	30.000 20.000
134	28.000 30.000
135	-33.000 25.000
136	-15.000 -15.000
137	-30.000 -30.000
138	25.000 -23.000
139	5.000 -10.000
140	7.000 -28.000
141	-11.000 -23.000
142	-12.000 -32.000
143	-24.000 -21.000
144	-29.000 3.000
145	-33.000 13.000
146	-27.000 21.000
147	-22.000 17.000
148	-29.000 33.000
149	12.000 12.000
150	14.000 23.000
151	-8.000 8.000
152	2.000 -4.000
153	22.000 -6.000
154	28.000 -12.000
155	18.000 -23.000
156	-3.000 -23.000
157	1.000 -9.000
158	-14.000 -11.000
159	-18.000 -1.000
160	-23.000 -11.000
161	-11.000 23.000
162	-8.000 34.000
163	-20.000 42.000
164	27.000 42.000
165	14.000 38.000
166	32.000 -30.000
167	21.000 4.000
168	2.000 12.000
169	2.000 21.000
170	22.000 33.000
171	12.000 -19.000
172	9.000 -18.000
173	11.000 -22.000
174	14.000 -24.000
175	14.000 7.000
176	18.000 8.000
177	26.000 17.000
178	22.000 13.000
179	21.000 2.000
180	20.000 19.000
181	-20.000 12.000
182	-21.000 2.000
183	-24.000 -4.000
184	-19.000 -13.000
185	-31.000 -17.000
186	-7.000 -17.000
187	-9.000 17.000
188	-9.000 0.000
189	-4.000 32.000
190	-20.000 -16.000
191	-13.000 -13.000
192	-17.000 -11.000
193	-9.000 -8.000
194	-10.000 -11.000
195	-13.000 -8.000
196	-10.000 -14.000
197	-16.000 -14.000
198	-15.000 -9.000
199	-17.000 -17.000
DEMAND_SECTION
1 18 18 18 18 -1
2 26 26 26 26 26
3 11 -1 11 11 11
4 -1 30 30 30 -1
5 21 21 21 21 21
6 -1 19 19 19 -1
7 15 15 -1 15 15
8 16 -1 16 -1 16
9 -1 -1 -1 29 29
10 -1 -1 -1 -1 -1
11 37 37 37 37 -1
12 -1 16 -1 16 16
13 -1 12 12 12 -1
14 31 -1 -1 31 -1
15 8 8 8 8 -1
16 19 19 19 19 19
17 20 20 20 20 20
18 -1 13 -1 -1 -1
19 15 15 -1 15 15
20 22 22 22 -1 22
21 -1 28 28 -1 28
22 12 -1 12 -1 12
23 6 6 6 -1 -1
24 27 -1 27 -1 27
25 14 14 14 14 14
26 -1 18 18 -1 18
27 -1 17 17 17 17
28 29 29 29 29 29
29 13 13 13 13 -1
30 22 22 22 -1 22
31 25 25 25 25 25
32 -1 28 28 -1 -1
33 -1 27 27 27 27
34 -1 19 19 19 19
35 10 -1 10 -1 -1
36 12 -1 12 12 12
37 -1 -1 -1 14 14
38 24 24 -1 -1 24
39 16 16 16 -1 16
40 33 33 -1 -1 33
41 15 -1 -1 15 15
42 11 -1 11 11 11
43 18 18 -1 18 18
44 -1 -1 -1 17 17
45 -1 -1 21 -1 -1
46 27 27 27 27 27
47 19 -1 -1 19 -1
48 -1 20 -1 20 20
49 5 -1 5 -1 5
50 7 -1 7 -1 -1
51 30 30 30 30 30
52 16 16 16 16 16
53 -1 9 9 -1 9
54 -1 21 21 -1 21
55 15 15 15 -1 15
56 19 19 19 19 19
57 23 23 23 -1 23
58 11 11 11 11 -1
59 5 -1 -1 -1 5
60 19 19 -1 19 -1
61 29 29 29 -1 29
62 23 23 23 23 23
63 21 -1 21 21 21
64 -1 10 -1 10 10
65 -1 15 15 15 15
66 -1 3 3 3 -1
67 -1 41 41 -1 41
68 9 9 -1 9 -1
69 28 28 28 28 -1
70 8 8 8 8 8
71 8 8 8 8 -1
72 16 16 -1 -1 -1
73 10 10 10 10 10
74 28 -1 28 -1 28
75 7 7 -1 7 -1
76 -1 -1 -1 15 15
77 -1 14 14 14 -1
78 6 6 -1 -1 -1
79 19 19 -1 19 19
80 -1 -1 -1 11 11
81 12 -1 12 -1 -1
82 23 -1 23 23 23
83 26 26 -1 26 26
84 17 -1 -1 -1 17
85 6 6 6 -1 -1
86 9 9 9 9 9
87 15 15 15 -1 -1
88 14 14 14 14 14
89 7 7 7 -1 7
90 27 -1 27 -1 -1
91 13 13 13 13 -1
92 11 -1 -1 -1 11
93 -1 -1 16 16 16
94 -1 -1 10 10 10
95 5 5 5 -1 5
96 -1 -1 25 25 25
97 17 -1 17 -1 17
98 18 18 -1 -1 18
99 10 10 10 10 10
100 10 10 10 10 10
101 -1 7 7 7 7
102 -1 13 -1 13 13
103 19 19 19 -1 19
104 26 26 -1 26 26
105 -1 -1 3 -1 -1
106 -1 5 5 -1 5
107 9 -1 9 9 9
108 -1 -1 16 -1 -1
109 16 16 16 16 16
110 12 -1 12 12 12
111 19 19 19 19 19
112 -1 -1 23 23 23
113 -1 20 20 20 20
114 8 -1 -1 8 8
115 19 -1 -1 19 -1
116 2 2 -1 2 2
117 -1 12 12 12 12
118 17 -1 17 -1 17
119 -1 -1 9 9 9
120 11 -1 11 -1 -1
121 18 18 18 18 18
122 -1 29 29 29 -1
123 3 -1 3 -1 -1
124 6 6 6 -1 6
125 17 -1 -1 17 -1
126 16 16 16 16 16
127 16 -1 -1 16 -1
128 9 9 9 9 9
129 -1 21 21 21 21
130 -1 -1 27 -1 27
131 23 -1 23 -1 23
132 11 -1 11 11 11
133 14 14 14 14 14
134 8 8 -1 -1 8
135 5 5 5 5 -1
136 8 8 8 -1 -1
137 16 16 16 -1 16
138 31 31 31 -1 -1
139 9 -1 -1 9 9
140 -1 5 5 5 5
141 -1 5 5 5 5
142 -1 7 7 7 7
143 18 -1 18 18 18
144 16 16 16 16 -1
145 1 1 1 1 1
146 27 27 27 27 -1
147 -1 36 36 36 -1
148 -1 30 30 30 30
149 13 13 13 13 -1
150 10 10 -1 -1 10
151 9 9 9 9 9
152 14 14 14 14 -1
153 -1 18 18 18 -1
154 -1 2 2 -1 2
155 6 6 6 6 6
156 -1 7 7 7 -1
157 -1 -1 18 18 18
158 28 -1 28 28 28
159 3 3 -1 -1 3
160 -1 13 -1 13 13
161 -1 -1 19 19 19
162 10 10 -1 -1 10
163 9 9 9 9 -1
164 20 20 -1 20 -1
165 -1 25 -1 -1 -1
166 25 25 25 25 -1
167 36 36 -1 -1 36
168 6 6 6 6 6
169 5 -1 5 5 -1
170 15 15 -1 -1 15
171 -1 -1 25 -1 -1
172 -1 9 9 -1 9
173 8 8 8 8 8
174 -1 18 18 18 18
175 13 13 13 13 -1
176 14 -1 14 -1 14
177 3 3 -1 3 3
178 -1 23 23 23 23
179 -1 6 6 6 6
180 26 26 -1 26 -1
181 16 16 16 16 16
182 11 11 11 11 11
183 7 7 7 7 -1
184 -1 41 41 41 -1
185 35 35 35 -1 35
186 26 26 -1 26 26
187 9 9 9 -1 9
188 15 15 15 15 -1
189 3 3 3 3 3
190 1 -1 -1 1 1
191 2 2 -1 2 2
192 22 -1 22 22 22
193 27 27 27 27 27
194 20 -1 20 20 20
195 11 -1 11 -1 11
196 12 12 12 12 12
197 -1 -1 10 10 10
198 -1 9 9 9 9
199 17 17 17 17 -1
SVC_TIME_SECTION
1	10.000000	10.000000	10.000000	10.000000	0.000000	
2	10.000000	10.000000	10.000000	10.000000	10.000000	
3	10.000000	0.000000	10.000000	10.000000	10.000000	
4	0.000000	10.000000	10.000000	10.000000	0.000000	
5	10.000000	10.000000	10.000000	10.000000	10.000000	
6	0.000000	10.000000	10.000000	10.000000	0.000000	
7	10.000000	10.000000	0.000000	10.000000	10.000000	
8	10.000000	0.000000	10.000000	0.000000	10.000000	
9	0.000000	0.000000	0.000000	10.000000	10.000000	
10	0.000000	0.000000	0.000000	0.000000	0.000000	
11	10.000000	10.000000	10.000000	10.000000	0.000000	
12	0.000000	10.000000	0.000000	10.000000	10.000000	
13	0.000000	10.000000	10.000000	10.000000	0.000000	
14	10.000000	0.000000	0.000000	10.000000	0.000000	
15	10.000000	10.000000	10.000000	10.000000	0.000000	
16	10.000000	10.000000	10.000000	10.000000	10.000000	
17	10.000000	10.000000	10.000000	10.000000	10.000000	
18	0.000000	10.000000	0.000000	0.000000	0.000000	
19	10.000000	10.000000	0.000000	10.000000	10.000000	
20	10.000000	10.000000	10.000000	0.000000	10.000000	
21	0.000000	10.000000	10.000000	0.000000	10.000000	
22	10.000000	0.000000	10.000000	0.000000	10.000000	
23	10.000000	10.000000	10.000000	0.000000	0.000000	
24	10.000000	0.000000	10.000000	0.000000	10.000000	
25	10.000000	10.000000	10.000000	10.000000	10.000000	
26	0.000000	10.000000	10.000000	0.000000	10.000000	
27	0.000000	10.000000	10.000000	10.000000	10.000000	
28	10.000000	10.000000	10.000000	10.000000	10.000000	
29	10.000000	10.000000	10.000000	10.000000	0.000000	
30	10.000000	10.000000	10.000000	0.000000	10.000000	
31	10.000000	10.000000	10.000000	10.000000	10.000000	
32	0.000000	10.000000	10.000000	0.000000	0.000000	
33	0.000000	10.000000	10.000000	10.000000	10.000000	
34	0.000000	10.000000	10.000000	10.000000	10.000000	
35	10.000000	0.000000	10.000000	0.000000	0.000000	
36	10.000000	0.000000	10.000000	10.000000	10.000000	
37	0.000000	0.000000	0.000000	10.000000	10.000000	
38	10.000000	10.000000	0.000000	0.000000	10.000000	
39	10.000000	10.000000	10.000000	0.000000	10.000000	
40	10.000000	10.000000	0.000000	0.000000	10.000000	
41	10.000000	0.000000	0.000000	10.000000	10.000000	
42	10.000000	0.000000	10.000000	10.000000	10.000000	
43	10.000000	10.000000	0.000000	10.000000	10.000000	
44	0.000000	0.000000	0.000000	10.000000	10.000000	
45	0.000000	0.000000	10.000000	0.000000	0.000000	
46	10.000000	10.000000	10.000000	10.000000	10.000000	
47	10.000000	0.000000	0.000000	10.000000	0.000000	
48	0.000000	10.000000	0.000000	10.000000	10.000000	
49	10.000000	0.000000	10.000000	0.000000	10.000000	
50	10.000000	0.000000	10.000000	0.000000	0.000000	
51	10.000000	10.000000	10.000000	10.000000	10.000000	
52	10.000000	10.000000	10.000000	10.000000	10.000000	
53	0.000000	10.000000	10.000000	0.000000	10.000000	
54	0.000000	10.000000	10.000000	0.000000	10.000000	
55	10.000000	10.000000	10.000000	0.000000	10.000000	
56	10.000000	10.000000	10.000000	10.000000	10.000000	
57	10.000000	10.000000	10.000000	0.000000	10.000000	
58	10.000000	10.000000	10.000000	10.000000	0.000000	
59	10.000000	0.000000	0.000000	0.000000	10.000000	
60	10.000000	10.000000	0.000000	10.000000	0.000000	
61	10.000000	10.000000	10.000000	0.000000	10.000000	
62	10.000000	10.000000	10.000000	10.000000	10.000000	
63	10.000000	0.000000	10.000000	10.000000	10.000000	
64	0.000000	10.000000	0.000000	10.000000	10.000000	
65	0.000000	10.000000	10.000000	10.000000	10.000000	
66	0.000000	10.000000	10.000000	10.000000	0.000000	
67	0.000000	10.000000	10.000000	0.000000	10.000000	
68	10.000000	10.000000	0.000000	10.000000	0.000000	
69	10.000000	10.000000	10.000000	10.000000	0.000000	
70	10.000000	10.000000	10.000000	10.000000	10.000000	
71	10.000000	10.000000	10.000000	10.000000	0.000000	
72	10.000000	10.000000	0.000000	0.000000	0.000000	
73	10.000000	10.000000	10.000000	10.000000	10.000000	
74	10.000000	0.000000	10.000000	0.000000	10.000000	
75	10.000000	10.000000	0.000000	10.000000	0.000000	
76	0.000000	0.000000	0.000000	10.000000	10.000000	
77	0.000000	10.000000	10.000000	10.000000	0.000000	
78	10.000000	10.000000	0.000000	0.000000	0.000000	
79	10.000000	10.000000	0.000000	10.000000	10.000000	
80	0.000000	0.000000	0.000000	10.000000	10.000000	
81	10.000000	0.000000	10.000000	0.000000	0.000000	
82	10.000000	0.000000	10.000000	10.000000	10.000000	
83	10.000000	10.000000	0.000000	10.000000	10.000000	
84	10.000000	0.000000	0.000000	0.000000	10.000000	
85	10.000000	10.000000	10.000000	0.000000	0.000000	
86	10.000000	10.000000	10.000000	10.000000	10.000000	
87	10.000000	10.000000	10.000000	0.000000	0.000000	
88	10.000000	10.000000	10.000000	10.000000	10.000000	
89	10.000000	10.000000	10.000000	0.000000	10.000000	
90	10.000000	0.000000	10.000000	0.000000	0.000000	
91	10.000000	10.000000	10.000000	10.000000	0.000000	
92	10.000000	0.000000	0.000000	0.000000	10.000000	
93	0.000000	0.000000	10.000000	10.000000	10.000000	
94	0.000000	0.000000	10.000000	10.000000	10.000000	
95	10.000000	10.000000	10.000000	0.000000	10.000000	
96	0.000000	0.000000	10.000000	10.000000	10.000000	
97	10.000000	0.000000	10.000000	0.000000	10.000000	
98	10.000000	10.000000	0.000000	0.000000	10.000000	
99	10.000000	10.000000	10.000000	10.000000	10.000000	
100	10.000000	10.000000	10.000000	10.000000	10.000000	
101	0.000000	10.000000	10.000000	10.000000	10.000000	
102	0.000000	10.000000	0.000000	10.000000	10.000000	
103	10.000000	10.000000	10.000000	0.000000	10.000000	
104	10.000000	10.000000	0.000000	10.000000	10.000000	
105	0.000000	0.000000	10.000000	0.000000	0.000000	
106	0.000000	10.000000	10.000000	0.000000	10.000000	
107	10.000000	0.000000	10.000000	10.000000	10.000000	
108	0.000000	0.000000	10.000000	0.000000	0.000000	
109	10.000000	10.000000	10.000000	10.000000	10.000000	
110	10.000000	0.000000	10.000000	10.000000	10.000000	
111	10.000000	10.000000	10.000000	10.000000	10.000000	
112	0.000000	0.000000	10.000000	10.000000	10.000000	
113	0.000000	10.000000	10.000000	10.000000	10.000000	
114	10.000000	0.000000	0.000000	10.000000	10.000000	
115	10.000000	0.000000	0.000000	10.000000	0.000000	
116	10.000000	10.000000	0.000000	10.000000	10.000000	
117	0.000000	10.000000	10.000000	10.000000	10.000000	
118	10.000000	0.000000	10.000000	0.000000	10.000000	
119	0.000000	0.000000	10.000000	10.000000	10.000000	
120	10.000000	0.000000	10.000000	0.000000	0.000000	
121	10.000000	10.000000	10.000000	10.000000	10.000000	
122	0.000000	10.000000	10.000000	10.000000	0.000000	
123	10.000000	0.000000	10.000000	0.000000	0.000000	
124	10.000000	10.000000	10.000000	0.000000	10.000000	
125	10.000000	0.000000	0.000000	10.000000	0.000000	
126	10.000000	10.000000	10.000000	10.000000	10.000000	
127	10.000000	0.000000	0.000000	10.000000	0.000000	
128	10.000000	10.000000	10.000000	10.000000	10.000000	
129	0.000000	10.000000	10.000000	10.000000	10.000000	
130	0.000000	0.000000	10.000000	0.000000	10.000000	
131	10.000000	0.000000	10.000000	0.000000	10.000000	
132	10.000000	0.000000	10.000000	10.000000	10.000000	
133	10.000000	10.000000	10.000000	10.000000	10.000000	
134	10.000000	10.000000	0.000000	0.000000	10.000000	
135	10.000000	10.000000	10.000000	10.000000	0.000000	
136	10.000000	10.000000	10.000000	0.000000	0.000000	
137	10.000000	10.000000	10.000000	0.000000	10.000000	
138	10.000000	10.000000	10.000000	0.000000	0.000000	
139	10.000000	0.000000	0.000000	10.000000	10.000000	
140	0.000000	10.000000	10.000000	10.000000	10.000000	
141	0.000000	10.000000	10.000000	10.000000	10.000000	
142	0.000000	10.000000	10.000000	10.000000	10.000000	
143	10.000000	0.000000	10.000000	10.000000	10.000000	
144	10.000000	10.000000	10.000000	10.000000	0.000000	
145	10.000000	10.000000	10.000000	10.000000	10.000000	
146	10.000000	10.000000	10.000000	10.000000	0.000000	
147	0.000000	10.000000	10.000000	10.000000	0.000000	
148	0.000000	10.000000	10.000000	10.000000	10.000000	
149	10.000000	10.000000	10.000000	10.000000	0.000000	
150	10.000000	10.000000	0.000000	0.000000	10.000000	
151	10.000000	10.000000	10.000000	10.000000	10.000000	
152	10.000000	10.000000	10.000000	10.000000	0.000000	
153	0.000000	10.000000	10.000000	10.000000	0.000000	
154	0.000000	10.000000	10.000000	0.000000	10.000000	
155	10.000000	10.000000	10.000000	10.000000	10.000000	
156	0.000000	10.000000	10.000000	10.000000	0.000000	
157	0.000000	0.000000	10.000000	10.000000	10.000000	
158	10.000000	0.000000	10.000000	10.000000	10.000000	
159	10.000000	10.000000	0.000000	0.000000	10.000000	
160	0.000000	10.000000	0.000000	10.000000	10.000000	
161	0.000000	0.000000	10.000000	10.000000	10.000000	
162	10.000000	10.000000	0.000000	0.000000	10.000000	
163	10.000000	10.000000	10.000000	10.000000	0.000000	
164	10.000000	10.000000	0.000000	10.000000	0.000000	
165	0.000000	10.000000	0.000000	0.000000	0.000000	
166	10.000000	10.000000	10.000000	10.000000	0.000000	
167	10.000000	10.000000	0.000000	0.000000	10.000000	
168	10.000000	10.000000	10.000000	10.000000	10.000000	
169	10.000000	0.000000	10.000000	10.000000	0.000000	
170	10.000000	10.000000	0.000000	0.000000	10.000000	
171	0.000000	0.000000	10.000000	0.000000	0.000000	
172	0.000000	10.000000	10.000000	0.000000	10.000000	
173	10.000000	10.000000	10.000000	10.000000	10.000000	
174	0.000000	10.000000	10.000000	10.000000	10.000000	
175	10.000000	10.000000	10.000000	10.000000	0.000000	
176	10.000000	0.000000	10.000000	0.000000	10.000000	
177	10.000000	10.000000	0.000000	10.000000	10.000000	
178	0.000000	10.000000	10.000000	10.000000	10.000000	
179	0.000000	10.000000	10.000000	10.000000	10.000000	
180	10.000000	10.000000	0.000000	10.000000	0.000000	
181	10.000000	10.000000	10.000000	10.000000	10.000000	
182	10.000000	10.000000	10.000000	10.000000	10.000000	
183	10.000000	10.000000	10.000000	10.000000	0.000000	
184	0.000000	10.000000	10.000000	10.000000	0.000000	
185	10.000000	10.000000	10.000000	0.000000	10.000000	
186	10.000000	10.000000	0.000000	10.000000	10.000000	
187	10.000000	10.000000	10.000000	0.000000	10.000000	
188	10.000000	10.000000	10.000000	10.000000	0.000000	
189	10.000000	10.000000	10.000000	10.000000	10.000000	
190	10.000000	0.000000	0.000000	10.000000	10.000000	
191	10.000000	10.000000	0.000000	10.000000	10.000000	
192	10.000000	0.000000	10.000000	10.000000	10.000000	
193	10.000000	10.000000	10.000000	10.000000	10.000000	
194	10.000000	0.000000	10.000000	10.000000	10.000000	
195	10.000000	0.000000	10.000000	0.000000	10.000000	
196	10.000000	10.000000	10.000000	10.000000	10.000000	
197	0.000000	0.000000	10.000000	10.000000	10.000000	
198	0.000000	10.000000	10.000000	10.000000	10.000000	
199	10.000000	10.000000	10.000000	10.000000	0.000000	
DEPOT_SECTION
0.0000 0.00000
-1
EOF

